
====================================================
      4-NODED FINITE ELEMENT STRESS ANALYSIS
====================================================

FILE: Q:\Research\2010-2011\SlopeFEA\TestFiles\test2
DATE:  6/27/2011
TIME: 15: 2:55.976



 type of analysis ...................... = PLANE STRAIN ELASTO-PLASTIC (MOHR-COULOMB FAILURE CRITERION)    
 # of material types .............. NMTL =       1
 # of nodes ....................... NNOD =      20
 # of coordinate dimensions ....... NDIM =       2
 # of dofs/node ................... NVAR =       2
 # of body elements ................ NEL =      14
 # of nodes/element ............. NNODEL =       4
 # of dofs/element ................ NVEL =       8
 # of traction elements ........... NELT =       3
 # of nodes/traction element ... NNODELT =       2
 # of dofs/traction element ...... NVELT =       4
 # of load steps ................. NSTEP =       5
 # of iterations/load step ....... NITER =     200
 # of print lines ............... NPRINT =       2
 output node number ............. IPRINT =      11
 load factor ..................... LFACT =  0.10000E+01
 gravity factor .................. GFACT =  0.10000E+01



===================== NODE INFORMATION =====================

 NODE        COORDS (X,Y,..)        FIX (U,V,..)         PLOADS (U,V,..)

    1  -0.160000E+02   0.200000E+01      0      0   0.000000E+00   0.000000E+00
    2  -0.160000E+02   0.220000E+02      0      1   0.000000E+00   0.000000E+00
    3   0.314286E+01   0.200000E+01      2      0   0.000000E+00   0.000000E+00
    4   0.500000E+01   0.220000E+02      3      4   0.000000E+00   0.000000E+00
    5   0.222857E+02   0.200000E+01      5      0   0.000000E+00   0.000000E+00
    6   0.260000E+02   0.220000E+02      6      7   0.000000E+00   0.000000E+00
    7   0.414286E+02   0.200000E+01      8      0   0.000000E+00   0.000000E+00
    8   0.440000E+02   0.350000E+02      9     10   0.000000E+00   0.000000E+00
    9   0.605714E+02   0.200000E+01     11      0   0.000000E+00   0.000000E+00
   10   0.605714E+02   0.250000E+02     12     13   0.000000E+00   0.000000E+00
   11   0.620000E+02   0.480000E+02     14     15   0.200000E+02   0.500000E+02
   12   0.797143E+02   0.200000E+01     16      0   0.000000E+00   0.000000E+00
   13   0.797143E+02   0.250000E+02     17     18   0.000000E+00   0.000000E+00
   14   0.806667E+02   0.480000E+02     19     20   0.000000E+00   0.000000E+00
   15   0.988571E+02   0.200000E+01     21      0   0.000000E+00   0.000000E+00
   16   0.988571E+02   0.250000E+02     22     23   0.000000E+00   0.000000E+00
   17   0.993333E+02   0.480000E+02     24     25   0.000000E+00   0.000000E+00
   18   0.118000E+03   0.200000E+01      0      0   0.000000E+00   0.000000E+00
   19   0.118000E+03   0.250000E+02      0     26   0.000000E+00   0.000000E+00
   20   0.118000E+03   0.480000E+02      0     27   0.000000E+00   0.000000E+00


================= BODY ELEMENT INFORMATION =================

 ELEMENT        NODES         MTL           AREA       CENTROID (X,Y,..)

       1    7    9   10    8    1   0.506429E+03   0.516429E+02   0.160000E+02
       2    8   10   11    8    1   0.197714E+03   0.526429E+02   0.357500E+02
       3    9   12   13   10    1   0.440286E+03   0.701429E+02   0.135000E+02
       4   10   13   14   11    1   0.434810E+03   0.707381E+02   0.365000E+02
       5   12   15   16   13    1   0.440286E+03   0.892857E+02   0.135000E+02
       6   13   16   17   14    1   0.434810E+03   0.896429E+02   0.365000E+02
       7   15   18   19   16    1   0.440286E+03   0.108429E+03   0.135000E+02
       8   16   19   20   17    1   0.434810E+03   0.108548E+03   0.365000E+02
       9    7    6    5    7    1   0.191429E+03   0.327857E+02   0.700000E+01
      10    7    8    6    7    1   0.280286E+03   0.382143E+02   0.152500E+02
      11    5    4    3    5    1   0.191429E+03   0.131786E+02   0.700000E+01
      12    5    6    4    5    1   0.210000E+03   0.188929E+02   0.120000E+02
      13    3    2    1    3    1   0.191429E+03  -0.642857E+01   0.700000E+01
      14    3    4    2    3    1   0.210000E+03  -0.117857E+01   0.120000E+02


=============== STIFFNESS MATRIX INFORMATION ===============

 # of degrees of freedom ... NNET =      27
 # of codiagonal bands .... LBAND =       8


==================== MATERIAL PROPERTIES ===================


MATERIAL SET    1
*************************
unit weight ............... GRR =  0.18000E+02
internal friction angle ... PHI =  0.50000E+01
cohesion .................. COH =  0.50000E+02
dilatancy angle ........... PSI =  0.10000E+02
elastic modulus .......... EMOD =  0.10000E+05
poisson's ratio ............ NU =  0.45000E+00


=============== TRACTION ELEMENT INFORMATION ===============

 ELEMENT     NODES                  TNF                           TSF

       1     20     17  -0.200000E+01  -0.466667E+01   0.000000E+00   0.000000E+00
       2     17     14  -0.466667E+01  -0.733333E+01   0.000000E+00   0.000000E+00
       3     14     11  -0.733333E+01  -0.100000E+02   0.000000E+00   0.000000E+00



=============== GRAVITY LOADING ===============



OUTPUT FOR LOAD FACTOR =    0.200000E+00

NODE DISPLACEMENTS
**********************

 INOD            COORDS                        DISP

    1  -0.160000E+02   0.200000E+01   0.000000E+00   0.000000E+00
    2  -0.160000E+02   0.220000E+02   0.000000E+00  -0.139803E+00
    3   0.314286E+01   0.200000E+01  -0.171130E+00   0.000000E+00
    4   0.500000E+01   0.220000E+02   0.436450E+01  -0.239210E+01
    5   0.222857E+02   0.200000E+01   0.153345E+01   0.000000E+00
    6   0.260000E+02   0.220000E+02   0.142866E+02  -0.908708E+01
    7   0.414286E+02   0.200000E+01   0.120307E+01   0.000000E+00
    8   0.440000E+02   0.350000E+02   0.208846E+02  -0.297350E+02
    9   0.605714E+02   0.200000E+01  -0.120173E+02   0.000000E+00
   10   0.605714E+02   0.250000E+02  -0.392158E+01  -0.662356E+02
   11   0.620000E+02   0.480000E+02   0.549264E+02  -0.106324E+03
   12   0.797143E+02   0.200000E+01  -0.194395E+02   0.000000E+00
   13   0.797143E+02   0.250000E+02   0.288498E+01  -0.860184E+02
   14   0.806667E+02   0.480000E+02   0.232391E+02  -0.146055E+03
   15   0.988571E+02   0.200000E+01  -0.509698E+01   0.000000E+00
   16   0.988571E+02   0.250000E+02  -0.885708E+00  -0.874176E+02
   17   0.993333E+02   0.480000E+02   0.103737E+02  -0.153330E+03
   18   0.118000E+03   0.200000E+01   0.000000E+00   0.000000E+00
   19   0.118000E+03   0.250000E+02   0.000000E+00  -0.861861E+02
   20   0.118000E+03   0.480000E+02   0.000000E+00  -0.156074E+03

MATERIAL POINT STRESSES
**********************

  IEL           LOCATION             IPL            S11            S22            S12            S33


    1   0.516429E+02   0.160000E+02    1   0.460222E+03   0.448091E+03  -0.823477E+01   0.458393E+03
    2   0.526429E+02   0.357500E+02    1   0.332892E+03   0.290426E+03  -0.787623E+01   0.280493E+03
    3   0.701429E+02   0.135000E+02    1   0.571503E+03   0.571503E+03   0.000000E+00   0.571503E+03
    4   0.707381E+02   0.365000E+02    1   0.503970E+03   0.491176E+03   0.772970E+00   0.496937E+03
    5   0.892857E+02   0.135000E+02    1   0.571503E+03   0.571503E+03  -0.177636E-14   0.571503E+03
    6   0.896429E+02   0.365000E+02    1   0.571503E+03   0.571503E+03  -0.106581E-13   0.571503E+03
    7   0.108429E+03   0.135000E+02    1   0.571503E+03   0.571503E+03  -0.888178E-15   0.571503E+03
    8   0.108548E+03   0.365000E+02    1   0.571503E+03   0.571503E+03   0.888178E-15   0.571503E+03
    9   0.327857E+02   0.700000E+01    1  -0.666566E+02  -0.139099E+03   0.462888E+02  -0.925901E+02
   10   0.382143E+02   0.152500E+02    1   0.353909E+03   0.312378E+03  -0.596678E+00   0.350211E+03
   11   0.131786E+02   0.700000E+01    1  -0.102454E+03  -0.195474E+03   0.421867E+02  -0.134068E+03
   12   0.188929E+02   0.120000E+02    1   0.228181E+03   0.163905E+03   0.616405E+01   0.176439E+03
   13  -0.642857E+01   0.700000E+01    0  -0.482494E+02  -0.348045E+02   0.000000E+00  -0.373742E+02
   14  -0.117857E+01   0.120000E+02    1   0.177870E+03   0.105445E+03   0.960188E+01   0.127492E+03
