
====================================================
      3-NODED FINITE ELEMENT STRESS ANALYSIS
====================================================

FILE: Q:\Research\2010-2011\SlopeFEA\TestFiles\test2
DATE:  6/29/2011
TIME:  9:35:16.183



 type of analysis ...................... = PLANE STRAIN ELASTO-PLASTIC (MOHR-COULOMB FAILURE CRITERION)    
 # of material types .............. NMTL =       1
 # of nodes ....................... NNOD =      20
 # of coordinate dimensions ....... NDIM =       2
 # of dofs/node ................... NVAR =       2
 # of body elements ................ NEL =      21
 # of nodes/element ............. NNODEL =       3
 # of dofs/element ................ NVEL =       6
 # of traction elements ........... NELT =       3
 # of nodes/traction element ... NNODELT =       2
 # of dofs/traction element ...... NVELT =       4
 # of load steps ................. NSTEP =       5
 # of iterations/load step ....... NITER =     200
 # of print lines ............... NPRINT =       2
 output node number ............. IPRINT =      11
 load factor ..................... LFACT =  0.10000E+01
 gravity factor .................. GFACT =  0.10000E+01



===================== NODE INFORMATION =====================

   NODE        COORDS (X,Y,..)        FIX (U,V,..)        PLOADS (U,V,..)

     1        -16.000       2.000         0    0          0.000       0.000
     2        -16.000      22.000         0    1          0.000       0.000
     3          3.143       2.000         0    0          0.000       0.000
     4          5.000      22.000         2    3          0.000       0.000
     5         22.286       2.000         0    0          0.000       0.000
     6         26.000      22.000         4    5          0.000       0.000
     7         41.429       2.000         0    0          0.000       0.000
     8         44.000      35.000         6    7          0.000       0.000
     9         60.571       2.000         0    0          0.000       0.000
    10         60.571      25.000         8    9          0.000       0.000
    11         62.000      48.000        10   11          0.000       0.000
    12         79.714       2.000         0    0          0.000       0.000
    13         79.714      25.000        12   13          0.000       0.000
    14         80.667      48.000        14   15          0.000       0.000
    15         98.857       2.000         0    0          0.000       0.000
    16         98.857      25.000        16   17          0.000       0.000
    17         99.333      48.000        18   19          0.000       0.000
    18        118.000       2.000         0    0          0.000       0.000
    19        118.000      25.000         0   20          0.000       0.000
    20        118.000      48.000         0   21          0.000       0.000


================= BODY ELEMENT INFORMATION =================

   ELEMENT         NODES         MTL        AREA        CENTROID (X,Y,..)

     1         4    2    3       1       0.2100E+03         -2.619    15.333
     2         2    1    3       1       0.1914E+03         -9.619     8.667
     3         6    4    5       1       0.2100E+03         17.762    15.333
     4         4    3    5       1       0.1914E+03         10.143     8.667
     5         8    6    7       1       0.2803E+03         37.143    19.667
     6         6    5    7       1       0.1914E+03         29.905     8.667
     7        10   11    8       1       0.1977E+03         55.524    36.000
     8         7    9   10       1       0.2201E+03         54.190     9.667
     9         7   10    8       1       0.2863E+03         48.667    20.667
    10        12   10    9       1       0.2201E+03         66.952     9.667
    11        12   13   10       1       0.2201E+03         73.333    17.333
    12        13   11   10       1       0.2201E+03         67.429    32.667
    13        13   14   11       1       0.2147E+03         74.127    40.333
    14        15   13   12       1       0.2201E+03         86.095     9.667
    15        15   16   13       1       0.2201E+03         92.476    17.333
    16        16   14   13       1       0.2201E+03         86.413    32.667
    17        16   17   14       1       0.2147E+03         92.952    40.333
    18        18   16   15       1       0.2201E+03        105.238     9.667
    19        18   19   16       1       0.2201E+03        111.619    17.333
    20        19   17   16       1       0.2201E+03        105.397    32.667
    21        19   20   17       1       0.2147E+03        111.778    40.333


=============== STIFFNESS MATRIX INFORMATION ===============

 # of degrees of freedom ... NNET =      21
 # of codiagonal bands .... LBAND =       5


==================== MATERIAL PROPERTIES ===================


MATERIAL SET    1
*************************
unit weight ............... GRR =  0.18000E+02
internal friction angle ... PHI =  0.50000E+01
cohesion .................. COH =  0.50000E+02
dilatancy angle ........... PSI =  0.10000E+02
elastic modulus .......... EMOD =  0.10000E+05
poisson's ratio ............ NU =  0.45000E+00


=============== TRACTION ELEMENT INFORMATION ===============

   ELEMENT      NODES               TNF                    TSF

     1        20   17      -0.2000E+01 -0.4667E+01       0.0000E+00  0.0000E+00
     2        17   14      -0.4667E+01 -0.7333E+01       0.0000E+00  0.0000E+00
     3        14   11      -0.7333E+01 -0.1000E+02       0.0000E+00  0.0000E+00



=============== GRAVITY LOADING ===============



OUTPUT FOR LOAD FACTOR =   0.10000E+01

NODE DISPLACEMENTS
**********************

 INOD            COORDS                        DISP

    1  -0.160000E+02   0.200000E+01   0.000000E+00   0.000000E+00
    2  -0.160000E+02   0.220000E+02   0.000000E+00  -0.190572E-01
    3   0.314286E+01   0.200000E+01   0.000000E+00   0.000000E+00
    4   0.500000E+01   0.220000E+02  -0.289992E-02  -0.154009E-01
    5   0.222857E+02   0.200000E+01   0.000000E+00   0.000000E+00
    6   0.260000E+02   0.220000E+02  -0.599321E-02  -0.230057E-01
    7   0.414286E+02   0.200000E+01   0.000000E+00   0.000000E+00
    8   0.440000E+02   0.350000E+02  -0.107068E-01  -0.551847E-01
    9   0.605714E+02   0.200000E+01   0.000000E+00   0.000000E+00
   10   0.605714E+02   0.250000E+02  -0.119269E-01  -0.574001E-01
   11   0.620000E+02   0.480000E+02  -0.661476E-02  -0.888084E-01
   12   0.797143E+02   0.200000E+01   0.000000E+00   0.000000E+00
   13   0.797143E+02   0.250000E+02  -0.709152E-02  -0.604724E-01
   14   0.806667E+02   0.480000E+02  -0.484996E-02  -0.906567E-01
   15   0.988571E+02   0.200000E+01   0.000000E+00   0.000000E+00
   16   0.988571E+02   0.250000E+02  -0.323717E-02  -0.596493E-01
   17   0.993333E+02   0.480000E+02  -0.208320E-02  -0.889783E-01
   18   0.118000E+03   0.200000E+01   0.000000E+00   0.000000E+00
   19   0.118000E+03   0.250000E+02   0.000000E+00  -0.586388E-01
   20   0.118000E+03   0.480000E+02   0.000000E+00  -0.836516E-01

MATERIAL POINT STRESSES
**********************

  IEL           LOCATION             IPL            S11            S22            S12            S33


    1  -0.261905E+01   0.153333E+02    0  -0.325144E+02  -0.503936E+02   0.578426E+00  -0.373086E+02
    2  -0.961905E+01   0.866667E+01    0  -0.311314E+02  -0.574172E+02   0.000000E+00  -0.398469E+02
    3   0.177619E+02   0.153333E+02    0  -0.355002E+02  -0.613135E+02  -0.875089E+01  -0.435662E+02
    4   0.101429E+02   0.866667E+01    0  -0.220351E+02  -0.432777E+02  -0.199994E+01  -0.293907E+02
    5   0.371429E+02   0.196667E+02    0  -0.295035E+02  -0.735087E+02  -0.129205E+02  -0.463555E+02
    6   0.299048E+02   0.866667E+01    0  -0.229950E+02  -0.547270E+02  -0.413325E+01  -0.349749E+02
    7   0.555238E+02   0.360000E+02    0  -0.945940E+01  -0.472970E+02  -0.960162E+01  -0.255404E+02
    8   0.541905E+02   0.966667E+01    0  -0.676942E+02  -0.136540E+03  -0.715257E+01  -0.919054E+02
    9   0.486667E+02   0.206667E+02    0  -0.414841E+02  -0.781710E+02  -0.192536E+02  -0.538448E+02
   10   0.669524E+02   0.966667E+01    0  -0.776120E+02  -0.146458E+03  -0.715257E+01  -0.100831E+03
   11   0.733333E+02   0.173333E+02    0  -0.612376E+02  -0.140736E+03  -0.646647E+01  -0.908883E+02
   12   0.674286E+02   0.326667E+02    0  -0.645090E+01  -0.508151E+02   0.755615E+00  -0.257697E+02
   13   0.741270E+02   0.403333E+02    0  -0.104049E+02  -0.491030E+02  -0.754535E-01  -0.267786E+02
   14   0.860952E+02   0.966667E+01    0  -0.872754E+02  -0.159806E+03  -0.425279E+01  -0.111187E+03
   15   0.924762E+02   0.173333E+02    0  -0.670596E+02  -0.144157E+03  -0.134827E+01  -0.950477E+02
   16   0.864127E+02   0.326667E+02    0  -0.109775E+02  -0.527841E+02   0.182232E+01  -0.286927E+02
   17   0.929524E+02   0.403333E+02    0  -0.890721E+01  -0.482246E+02   0.188988E+01  -0.257093E+02
   18   0.105238E+03   0.966667E+01    0  -0.903074E+02  -0.161851E+03  -0.194133E+01  -0.113471E+03
   19   0.111619E+03   0.173333E+02    0  -0.698703E+02  -0.144867E+03   0.728125E+00  -0.966316E+02
   20   0.105397E+03   0.326667E+02    0  -0.136274E+02  -0.534998E+02   0.137187E+01  -0.302073E+02
   21   0.111778E+03   0.403333E+02    0  -0.627073E+01  -0.393497E+02   0.393601E+01  -0.205292E+02



============== TRACTION LOADING ===============



OUTPUT FOR LOAD FACTOR =   0.10000E+01

NODE DISPLACEMENTS
**********************

 INOD            COORDS                        DISP

    1  -0.160000E+02   0.200000E+01   0.000000E+00   0.000000E+00
    2  -0.160000E+02   0.220000E+02   0.000000E+00  -0.618371E-03
    3   0.314286E+01   0.200000E+01   0.000000E+00   0.000000E+00
    4   0.500000E+01   0.220000E+02   0.420006E-04  -0.442640E-03
    5   0.222857E+02   0.200000E+01   0.000000E+00   0.000000E+00
    6   0.260000E+02   0.220000E+02   0.595364E-04  -0.299103E-03
    7   0.414286E+02   0.200000E+01   0.000000E+00   0.000000E+00
    8   0.440000E+02   0.350000E+02   0.133256E-04  -0.674465E-04
    9   0.605714E+02   0.200000E+01   0.000000E+00   0.000000E+00
   10   0.605714E+02   0.250000E+02   0.232745E-05  -0.289473E-04
   11   0.620000E+02   0.480000E+02  -0.167651E-04  -0.391595E-04
   12   0.797143E+02   0.200000E+01   0.000000E+00   0.000000E+00
   13   0.797143E+02   0.250000E+02  -0.209799E-05  -0.984857E-05
   14   0.806667E+02   0.480000E+02  -0.138551E-04  -0.161066E-04
   15   0.988571E+02   0.200000E+01   0.000000E+00   0.000000E+00
   16   0.988571E+02   0.250000E+02  -0.162001E-05  -0.310739E-05
   17   0.993333E+02   0.480000E+02  -0.771811E-05  -0.747304E-05
   18   0.118000E+03   0.200000E+01   0.000000E+00   0.000000E+00
   19   0.118000E+03   0.250000E+02   0.000000E+00  -0.128166E-05
   20   0.118000E+03   0.480000E+02   0.000000E+00  -0.736879E-05

MATERIAL POINT STRESSES
**********************

  IEL           LOCATION             IPL            S11            S22            S12            S33


    1  -0.261905E+01   0.153333E+02    0  -0.331821E+02  -0.517484E+02   0.720253E+00  -0.382187E+02
    2  -0.961905E+01   0.866667E+01    0  -0.322742E+02  -0.594129E+02   0.000000E+00  -0.412592E+02
    3   0.177619E+02   0.153333E+02    0  -0.359796E+02  -0.622635E+02  -0.861769E+01  -0.442094E+02
    4   0.101429E+02   0.866667E+01    0  -0.228198E+02  -0.446729E+02  -0.197098E+01  -0.303717E+02
    5   0.371429E+02   0.196667E+02    0  -0.296835E+02  -0.736942E+02  -0.127020E+02  -0.465199E+02
    6   0.299048E+02   0.866667E+01    0  -0.234666E+02  -0.556112E+02  -0.409219E+01  -0.355850E+02
    7   0.555238E+02   0.360000E+02    0  -0.946392E+01  -0.472862E+02  -0.958478E+01  -0.255375E+02
    8   0.541905E+02   0.966667E+01    0  -0.676595E+02  -0.136540E+03  -0.715117E+01  -0.918897E+02
    9   0.486667E+02   0.206667E+02    0  -0.414715E+02  -0.782059E+02  -0.192333E+02  -0.538549E+02
   10   0.669524E+02   0.966667E+01    0  -0.776061E+02  -0.146487E+03  -0.715117E+01  -0.100842E+03
   11   0.733333E+02   0.173333E+02    0  -0.612385E+02  -0.140743E+03  -0.645396E+01  -0.908915E+02
   12   0.674286E+02   0.326667E+02    0  -0.644955E+01  -0.508214E+02   0.758124E+00  -0.257719E+02
   13   0.741270E+02   0.403333E+02    0  -0.103923E+02  -0.491035E+02  -0.655591E-01  -0.267731E+02
   14   0.860952E+02   0.966667E+01    0  -0.872822E+02  -0.159825E+03  -0.425405E+01  -0.111198E+03
   15   0.924762E+02   0.173333E+02    0  -0.670565E+02  -0.144159E+03  -0.134439E+01  -0.950468E+02
   16   0.864127E+02   0.326667E+02    0  -0.109772E+02  -0.527924E+02   0.182012E+01  -0.286963E+02
   17   0.929524E+02   0.403333E+02    0  -0.888871E+01  -0.482207E+02   0.189250E+01  -0.256992E+02
   18   0.105238E+03   0.966667E+01    0  -0.903089E+02  -0.161856E+03  -0.194230E+01  -0.113474E+03
   19   0.111619E+03   0.173333E+02    0  -0.698654E+02  -0.144866E+03   0.729441E+00  -0.966290E+02
   20   0.105397E+03   0.326667E+02    0  -0.136266E+02  -0.535066E+02   0.136950E+01  -0.302099E+02
   21   0.111778E+03   0.403333E+02    0  -0.625212E+01  -0.393498E+02   0.393608E+01  -0.205209E+02
