
====================================================
      3-NODED FINITE ELEMENT STRESS ANALYSIS
====================================================

FILE: Q:\Research\2010-2011\SlopeFEA\TestFiles\test2
DATE:  7/ 7/2011
TIME: 16: 3:45.187



 type of analysis ...................... = PLANE STRAIN ELASTO-PLASTIC (MOHR-COULOMB FAILURE CRITERION)    
 # of material types .............. NMTL =       1
 # of nodes ....................... NNOD =      20
 # of coordinate dimensions ....... NDIM =       2
 # of dofs/node ................... NVAR =       2
 # of body elements ................ NEL =      21
 # of nodes/element ............. NNODEL =       3
 # of dofs/element ................ NVEL =       6
 # of traction elements ........... NELT =       3
 # of nodes/traction element ... NNODELT =       2
 # of dofs/traction element ...... NVELT =       4
 # of load steps ................. NSTEP =       5
 # of iterations/load step ....... NITER =     200
 # of print lines ............... NPRINT =       2
 output node number ............. IPRINT =      11
 load factor ..................... LFACT =  0.10000E+01
 gravity factor .................. GFACT =  0.10000E+01



===================== NODE INFORMATION =====================

   NODE        COORDS (X,Y,..)        FIX (U,V,..)        PLOADS (U,V,..)

     1        -16.000       2.000         0    0          0.000       0.000
     2        -16.000      22.000         0    1          0.000       0.000
     3          3.143       2.000         0    0          0.000       0.000
     4          5.000      22.000         2    3          0.000       0.000
     5         22.286       2.000         0    0          0.000       0.000
     6         26.000      22.000         4    5          0.000       0.000
     7         41.429       2.000         0    0          0.000       0.000
     8         44.000      35.000         6    7          0.000       0.000
     9         60.571       2.000         0    0          0.000       0.000
    10         60.571      25.000         8    9          0.000       0.000
    11         62.000      48.000        10   11          0.000       0.000
    12         79.714       2.000         0    0          0.000       0.000
    13         79.714      25.000        12   13          0.000       0.000
    14         80.667      48.000        14   15          0.000       0.000
    15         98.857       2.000         0    0          0.000       0.000
    16         98.857      25.000        16   17          0.000       0.000
    17         99.333      48.000        18   19          0.000       0.000
    18        118.000       2.000         0    0          0.000       0.000
    19        118.000      25.000         0   20          0.000       0.000
    20        118.000      48.000         0   21          0.000       0.000


================= BODY ELEMENT INFORMATION =================

   ELEMENT         NODES         MTL        AREA        CENTROID (X,Y,..)

     1         4    2    3       1       0.2100E+03         -2.619    15.333
     2         2    1    3       1       0.1914E+03         -9.619     8.667
     3         6    4    5       1       0.2100E+03         17.762    15.333
     4         4    3    5       1       0.1914E+03         10.143     8.667
     5         8    6    7       1       0.2803E+03         37.143    19.667
     6         6    5    7       1       0.1914E+03         29.905     8.667
     7        10   11    8       1       0.1977E+03         55.524    36.000
     8         7    9   10       1       0.2201E+03         54.190     9.667
     9         7   10    8       1       0.2863E+03         48.667    20.667
    10        12   10    9       1       0.2201E+03         66.952     9.667
    11        12   13   10       1       0.2201E+03         73.333    17.333
    12        13   11   10       1       0.2201E+03         67.429    32.667
    13        13   14   11       1       0.2147E+03         74.127    40.333
    14        15   13   12       1       0.2201E+03         86.095     9.667
    15        15   16   13       1       0.2201E+03         92.476    17.333
    16        16   14   13       1       0.2201E+03         86.413    32.667
    17        16   17   14       1       0.2147E+03         92.952    40.333
    18        18   16   15       1       0.2201E+03        105.238     9.667
    19        18   19   16       1       0.2201E+03        111.619    17.333
    20        19   17   16       1       0.2201E+03        105.397    32.667
    21        19   20   17       1       0.2147E+03        111.778    40.333


=============== STIFFNESS MATRIX INFORMATION ===============

 # of degrees of freedom ... NNET =      21
 # of codiagonal bands .... LBAND =       5


==================== MATERIAL PROPERTIES ===================


MATERIAL SET    1
*************************
unit weight ............... GRR =  0.18000E+02
internal friction angle ... PHI =  0.50000E+01
cohesion .................. COH =  0.50000E+02
dilatancy angle ........... PSI =  0.10000E+02
elastic modulus .......... EMOD =  0.10000E+05
poisson's ratio ............ NU =  0.45000E+00


=============== TRACTION ELEMENT INFORMATION ===============

   ELEMENT      NODES               TNF                    TSF

     1        20   17      -0.2000E+01 -0.4667E+01       0.0000E+00  0.0000E+00
     2        17   14      -0.4667E+01 -0.7333E+01       0.0000E+00  0.0000E+00
     3        14   11      -0.7333E+01 -0.1000E+02       0.0000E+00  0.0000E+00



=============== GRAVITY LOADING ===============



OUTPUT FOR LOAD FACTOR =   0.10000E+01

NODE DISPLACEMENTS
**********************

 INOD            COORDS                        DISP

    1  -0.160000E+02   0.200000E+01   0.000000E+00   0.000000E+00
    2  -0.160000E+02   0.220000E+02   0.000000E+00  -0.190572E-01
    3   0.314286E+01   0.200000E+01   0.000000E+00   0.000000E+00
    4   0.500000E+01   0.220000E+02  -0.289992E-02  -0.154009E-01
    5   0.222857E+02   0.200000E+01   0.000000E+00   0.000000E+00
    6   0.260000E+02   0.220000E+02  -0.599321E-02  -0.230057E-01
    7   0.414286E+02   0.200000E+01   0.000000E+00   0.000000E+00
    8   0.440000E+02   0.350000E+02  -0.107068E-01  -0.551847E-01
    9   0.605714E+02   0.200000E+01   0.000000E+00   0.000000E+00
   10   0.605714E+02   0.250000E+02  -0.119269E-01  -0.574001E-01
   11   0.620000E+02   0.480000E+02  -0.661476E-02  -0.888084E-01
   12   0.797143E+02   0.200000E+01   0.000000E+00   0.000000E+00
   13   0.797143E+02   0.250000E+02  -0.709152E-02  -0.604724E-01
   14   0.806667E+02   0.480000E+02  -0.484996E-02  -0.906567E-01
   15   0.988571E+02   0.200000E+01   0.000000E+00   0.000000E+00
   16   0.988571E+02   0.250000E+02  -0.323717E-02  -0.596493E-01
   17   0.993333E+02   0.480000E+02  -0.208320E-02  -0.889783E-01
   18   0.118000E+03   0.200000E+01   0.000000E+00   0.000000E+00
   19   0.118000E+03   0.250000E+02   0.000000E+00  -0.586388E-01
   20   0.118000E+03   0.480000E+02   0.000000E+00  -0.836516E-01

MATERIAL POINT STRESSES
**********************

  IEL           LOCATION             IPL            S11            S22            S12            S33


    1  -0.261905E+01   0.153333E+02    0  -0.325144E+02  -0.503936E+02   0.578426E+00  -0.373086E+02
    2  -0.961905E+01   0.866667E+01    0  -0.311314E+02  -0.574172E+02   0.000000E+00  -0.398469E+02
    3   0.177619E+02   0.153333E+02    0  -0.355002E+02  -0.613135E+02  -0.875089E+01  -0.435662E+02
    4   0.101429E+02   0.866667E+01    0  -0.220351E+02  -0.432777E+02  -0.199994E+01  -0.293907E+02
    5   0.371429E+02   0.196667E+02    0  -0.295035E+02  -0.735087E+02  -0.129205E+02  -0.463555E+02
    6   0.299048E+02   0.866667E+01    0  -0.229950E+02  -0.547270E+02  -0.413325E+01  -0.349749E+02
    7   0.555238E+02   0.360000E+02    0  -0.945940E+01  -0.472970E+02  -0.960162E+01  -0.255404E+02
    8   0.541905E+02   0.966667E+01    0  -0.676942E+02  -0.136540E+03  -0.715257E+01  -0.919054E+02
    9   0.486667E+02   0.206667E+02    0  -0.414841E+02  -0.781710E+02  -0.192536E+02  -0.538448E+02
   10   0.669524E+02   0.966667E+01    0  -0.776120E+02  -0.146458E+03  -0.715257E+01  -0.100831E+03
   11   0.733333E+02   0.173333E+02    0  -0.612376E+02  -0.140736E+03  -0.646647E+01  -0.908883E+02
   12   0.674286E+02   0.326667E+02    0  -0.645090E+01  -0.508151E+02   0.755615E+00  -0.257697E+02
   13   0.741270E+02   0.403333E+02    0  -0.104049E+02  -0.491030E+02  -0.754535E-01  -0.267786E+02
   14   0.860952E+02   0.966667E+01    0  -0.872754E+02  -0.159806E+03  -0.425279E+01  -0.111187E+03
   15   0.924762E+02   0.173333E+02    0  -0.670596E+02  -0.144157E+03  -0.134827E+01  -0.950477E+02
   16   0.864127E+02   0.326667E+02    0  -0.109775E+02  -0.527841E+02   0.182232E+01  -0.286927E+02
   17   0.929524E+02   0.403333E+02    0  -0.890721E+01  -0.482246E+02   0.188988E+01  -0.257093E+02
   18   0.105238E+03   0.966667E+01    0  -0.903074E+02  -0.161851E+03  -0.194133E+01  -0.113471E+03
   19   0.111619E+03   0.173333E+02    0  -0.698703E+02  -0.144867E+03   0.728125E+00  -0.966316E+02
   20   0.105397E+03   0.326667E+02    0  -0.136274E+02  -0.534998E+02   0.137187E+01  -0.302073E+02
   21   0.111778E+03   0.403333E+02    0  -0.627073E+01  -0.393497E+02   0.393601E+01  -0.205292E+02



============== TRACTION LOADING ===============



OUTPUT FOR LOAD FACTOR =   0.10000E+01

NODE DISPLACEMENTS
**********************

 INOD            COORDS                        DISP

    1  -0.160000E+02   0.200000E+01   0.000000E+00   0.000000E+00
    2  -0.160000E+02   0.220000E+02   0.000000E+00  -0.131464E-04
    3   0.314286E+01   0.200000E+01   0.000000E+00   0.000000E+00
    4   0.500000E+01   0.220000E+02  -0.485774E-04  -0.391773E-05
    5   0.222857E+02   0.200000E+01   0.000000E+00   0.000000E+00
    6   0.260000E+02   0.220000E+02  -0.121533E-03  -0.565185E-04
    7   0.414286E+02   0.200000E+01   0.000000E+00   0.000000E+00
    8   0.440000E+02   0.350000E+02  -0.324217E-03  -0.213251E-03
    9   0.605714E+02   0.200000E+01   0.000000E+00   0.000000E+00
   10   0.605714E+02   0.250000E+02  -0.307741E-03  -0.407049E-03
   11   0.620000E+02   0.480000E+02  -0.199085E-03  -0.101019E-02
   12   0.797143E+02   0.200000E+01   0.000000E+00   0.000000E+00
   13   0.797143E+02   0.250000E+02  -0.165462E-03  -0.595194E-03
   14   0.806667E+02   0.480000E+02  -0.492135E-04  -0.135277E-02
   15   0.988571E+02   0.200000E+01   0.000000E+00   0.000000E+00
   16   0.988571E+02   0.250000E+02  -0.256818E-04  -0.552129E-03
   17   0.993333E+02   0.480000E+02  -0.209715E-04  -0.108943E-02
   18   0.118000E+03   0.200000E+01   0.000000E+00   0.000000E+00
   19   0.118000E+03   0.250000E+02   0.000000E+00  -0.469123E-03
   20   0.118000E+03   0.480000E+02   0.000000E+00  -0.910543E-03

MATERIAL POINT STRESSES
**********************

  IEL           LOCATION             IPL            S11            S22            S12            S33


    1  -0.261905E+01   0.153333E+02    0  -0.326508E+02  -0.504727E+02   0.553948E+00  -0.374056E+02
    2  -0.961905E+01   0.866667E+01    0  -0.311312E+02  -0.574351E+02   0.000000E+00  -0.398548E+02
    3   0.177619E+02   0.153333E+02    0  -0.357124E+02  -0.614950E+02  -0.886035E+01  -0.437433E+02
    4   0.101429E+02   0.866667E+01    0  -0.220041E+02  -0.432521E+02  -0.203344E+01  -0.293653E+02
    5   0.371429E+02   0.196667E+02    0  -0.297529E+02  -0.738054E+02  -0.131103E+02  -0.466012E+02
    6   0.299048E+02   0.866667E+01    0  -0.229262E+02  -0.547361E+02  -0.421706E+01  -0.349480E+02
    7   0.555238E+02   0.360000E+02    0  -0.987636E+01  -0.484942E+02  -0.990550E+01  -0.262667E+02
    8   0.541905E+02   0.966667E+01    0  -0.680852E+02  -0.137419E+03  -0.733712E+01  -0.924769E+02
    9   0.486667E+02   0.206667E+02    0  -0.417098E+02  -0.784129E+02  -0.195895E+02  -0.540552E+02
   10   0.669524E+02   0.966667E+01    0  -0.780774E+02  -0.147411E+03  -0.733712E+01  -0.101470E+03
   11   0.733333E+02   0.173333E+02    0  -0.615081E+02  -0.141926E+03  -0.670126E+01  -0.915452E+02
   12   0.674286E+02   0.326667E+02    0  -0.671256E+01  -0.519884E+02   0.678843E+00  -0.264154E+02
   13   0.741270E+02   0.403333E+02    0  -0.108769E+02  -0.506840E+02  -0.263462E+00  -0.277024E+02
   14   0.860952E+02   0.966667E+01    0  -0.880310E+02  -0.161275E+03  -0.435201E+01  -0.112188E+03
   15   0.924762E+02   0.173333E+02    0  -0.672821E+02  -0.145244E+03  -0.133264E+01  -0.956365E+02
   16   0.864127E+02   0.326667E+02    0  -0.114842E+02  -0.544034E+02   0.191890E+01  -0.296494E+02
   17   0.929524E+02   0.403333E+02    0  -0.943947E+01  -0.494511E+02   0.208686E+01  -0.265008E+02
   18   0.105238E+03   0.966667E+01    0  -0.909819E+02  -0.163188E+03  -0.195673E+01  -0.114376E+03
   19   0.111619E+03   0.173333E+02    0  -0.703099E+02  -0.145906E+03   0.787934E+00  -0.972971E+02
   20   0.105397E+03   0.326667E+02    0  -0.141312E+02  -0.546875E+02   0.143412E+01  -0.309684E+02
   21   0.111778E+03   0.403333E+02    0  -0.659538E+01  -0.402348E+02   0.406819E+01  -0.210736E+02
