
====================================================
      3-NODED FINITE ELEMENT STRESS ANALYSIS
====================================================

FILE: C:\Users\Brandon\Documents\Research\2010-2011\SlopeFEA\TestFiles\test2
DATE:  6/28/2011
TIME: 16:36:24.474



 type of analysis ...................... = PLANE STRAIN ELASTO-PLASTIC (MOHR-COULOMB FAILURE CRITERION)    
 # of material types .............. NMTL =       1
 # of nodes ....................... NNOD =      20
 # of coordinate dimensions ....... NDIM =       2
 # of dofs/node ................... NVAR =       2
 # of body elements ................ NEL =      21
 # of nodes/element ............. NNODEL =       3
 # of dofs/element ................ NVEL =       6
 # of traction elements ........... NELT =       3
 # of nodes/traction element ... NNODELT =       2
 # of dofs/traction element ...... NVELT =       4
 # of load steps ................. NSTEP =       5
 # of iterations/load step ....... NITER =     200
 # of print lines ............... NPRINT =       2
 output node number ............. IPRINT =      11
 load factor ..................... LFACT =  0.10000E+01
 gravity factor .................. GFACT =  0.10000E+01



===================== NODE INFORMATION =====================

   NODE        COORDS (X,Y,..)        FIX (U,V,..)        PLOADS (U,V,..)

     1        -16.000       2.000         0    0          0.000       0.000
     2        -16.000      22.000         0    1          0.000       0.000
     3          3.143       2.000         2    0          0.000       0.000
     4          5.000      22.000         3    4          0.000       0.000
     5         22.286       2.000         5    0          0.000       0.000
     6         26.000      22.000         6    7          0.000       0.000
     7         41.429       2.000         8    0          0.000       0.000
     8         44.000      35.000         9   10          0.000       0.000
     9         60.571       2.000        11    0          0.000       0.000
    10         60.571      25.000        12   13          0.000       0.000
    11         62.000      48.000        14   15         20.000      50.000
    12         79.714       2.000        16    0          0.000       0.000
    13         79.714      25.000        17   18          0.000       0.000
    14         80.667      48.000        19   20          0.000       0.000
    15         98.857       2.000        21    0          0.000       0.000
    16         98.857      25.000        22   23          0.000       0.000
    17         99.333      48.000        24   25          0.000       0.000
    18        118.000       2.000         0    0          0.000       0.000
    19        118.000      25.000         0   26          0.000       0.000
    20        118.000      48.000         0   27          0.000       0.000


================= BODY ELEMENT INFORMATION =================

   ELEMENT         NODES         MTL        AREA        CENTROID (X,Y,..)

     1         4    2    3       1       0.2100E+03         -2.619    15.333
     2         2    1    3       1       0.1914E+03         -9.619     8.667
     3         6    4    5       1       0.2100E+03         17.762    15.333
     4         4    3    5       1       0.1914E+03         10.143     8.667
     5         8    6    7       1       0.2803E+03         37.143    19.667
     6         6    5    7       1       0.1914E+03         29.905     8.667
     7        10   11    8       1       0.1977E+03         55.524    36.000
     8         7    9   10       1       0.2201E+03         54.190     9.667
     9         7   10    8       1       0.2863E+03         48.667    20.667
    10        12   10    9       1       0.2201E+03         66.952     9.667
    11        12   13   10       1       0.2201E+03         73.333    17.333
    12        13   11   10       1       0.2201E+03         67.429    32.667
    13        13   14   11       1       0.2147E+03         74.127    40.333
    14        15   13   12       1       0.2201E+03         86.095     9.667
    15        15   16   13       1       0.2201E+03         92.476    17.333
    16        16   14   13       1       0.2201E+03         86.413    32.667
    17        16   17   14       1       0.2147E+03         92.952    40.333
    18        15   18   19       1       0.2201E+03        111.619     9.667
    19        15   19   16       1       0.2201E+03        105.238    17.333
    20        19   17   16       1       0.2201E+03        105.397    32.667
    21        19   20   17       1       0.2147E+03        111.778    40.333


=============== STIFFNESS MATRIX INFORMATION ===============

 # of degrees of freedom ... NNET =      27
 # of codiagonal bands .... LBAND =       6


==================== MATERIAL PROPERTIES ===================


MATERIAL SET    1
*************************
unit weight ............... GRR =  0.18000E+02
internal friction angle ... PHI =  0.50000E+01
cohesion .................. COH =  0.50000E+02
dilatancy angle ........... PSI =  0.10000E+02
elastic modulus .......... EMOD =  0.10000E+05
poisson's ratio ............ NU =  0.45000E+00


=============== TRACTION ELEMENT INFORMATION ===============

   ELEMENT      NODES               TNF                    TSF

     1        20   17      -0.2000E+01 -0.4667E+01       0.0000E+00  0.0000E+00
     2        17   14      -0.4667E+01 -0.7333E+01       0.0000E+00  0.0000E+00
     3        14   11      -0.7333E+01 -0.1000E+02       0.0000E+00  0.0000E+00



=============== GRAVITY LOADING ===============



OUTPUT FOR LOAD FACTOR =   0.10000E+01

NODE DISPLACEMENTS
**********************

 INOD            COORDS                        DISP

    1  -0.160000E+02   0.200000E+01   0.000000E+00   0.000000E+00
    2  -0.160000E+02   0.220000E+02   0.000000E+00  -0.106265E-01
    3   0.314286E+01   0.200000E+01  -0.140484E-01   0.000000E+00
    4   0.500000E+01   0.220000E+02  -0.168815E-01  -0.613153E-02
    5   0.222857E+02   0.200000E+01  -0.313749E-01   0.000000E+00
    6   0.260000E+02   0.220000E+02  -0.321261E-01  -0.136683E-01
    7   0.414286E+02   0.200000E+01  -0.476369E-01   0.000000E+00
    8   0.440000E+02   0.350000E+02  -0.262532E-01  -0.553098E-01
    9   0.605714E+02   0.200000E+01  -0.388370E-01   0.000000E+00
   10   0.605714E+02   0.250000E+02  -0.337286E-01  -0.635156E-01
   11   0.620000E+02   0.480000E+02  -0.177330E-01  -0.955749E-01
   12   0.797143E+02   0.200000E+01  -0.285606E-01   0.000000E+00
   13   0.797143E+02   0.250000E+02  -0.229859E-01  -0.672786E-01
   14   0.806667E+02   0.480000E+02  -0.130599E-01  -0.999503E-01
   15   0.988571E+02   0.200000E+01  -0.152175E-01   0.000000E+00
   16   0.988571E+02   0.250000E+02  -0.117035E-01  -0.656276E-01
   17   0.993333E+02   0.480000E+02  -0.455493E-02  -0.100314E+00
   18   0.118000E+03   0.200000E+01   0.000000E+00   0.000000E+00
   19   0.118000E+03   0.250000E+02   0.000000E+00  -0.739145E-01
   20   0.118000E+03   0.480000E+02   0.000000E+00  -0.992340E-01

MATERIAL POINT STRESSES
**********************

  IEL           LOCATION             IPL            S11            S22            S12            S33


    1  -0.261905E+01   0.153333E+02    0  -0.574068E+02  -0.442363E+02   0.202807E+01  -0.457394E+02
    2  -0.961905E+01   0.866667E+01    0  -0.620874E+02  -0.565000E+02   0.000000E+00  -0.533643E+02
    3   0.177619E+02   0.153333E+02    0  -0.568964E+02  -0.538848E+02  -0.360884E+01  -0.498515E+02
    4   0.101429E+02   0.866667E+01    0  -0.635301E+02  -0.470186E+02  -0.794625E+00  -0.497469E+02
    5   0.371429E+02   0.196667E+02    0  -0.359583E+02  -0.755394E+02  -0.702085E+01  -0.501740E+02
    6   0.299048E+02   0.866667E+01    0  -0.609460E+02  -0.563642E+02   0.165799E+01  -0.527896E+02
    7   0.555238E+02   0.360000E+02    0  -0.165706E+02  -0.519800E+02  -0.814747E+01  -0.308478E+02
    8   0.541905E+02   0.966667E+01    0  -0.476948E+02  -0.136557E+03   0.306349E+01  -0.829132E+02
    9   0.486667E+02   0.206667E+02    0  -0.289417E+02  -0.705020E+02  -0.108478E+02  -0.447497E+02
   10   0.669524E+02   0.966667E+01    0  -0.527943E+02  -0.143784E+03   0.306349E+01  -0.884602E+02
   11   0.733333E+02   0.173333E+02    0  -0.526108E+02  -0.148786E+03   0.631745E+00  -0.906285E+02
   12   0.674286E+02   0.326667E+02    0   0.947876E+01  -0.441174E+02   0.640035E+01  -0.155874E+02
   13   0.741270E+02   0.403333E+02    0  -0.764115E+01  -0.534658E+02   0.257656E+01  -0.274981E+02
   14   0.860952E+02   0.966667E+01    0  -0.561026E+02  -0.156025E+03   0.334316E+01  -0.954574E+02
   15   0.924762E+02   0.173333E+02    0  -0.538513E+02  -0.148824E+03   0.329697E+01  -0.912038E+02
   16   0.864127E+02   0.326667E+02    0   0.615645E+01  -0.493870E+02   0.680560E+01  -0.194538E+02
   17   0.929524E+02   0.403333E+02    0   0.880594E-01  -0.540730E+02   0.388793E+01  -0.242932E+02
   18   0.111619E+03   0.966667E+01    0  -0.556310E+02  -0.166214E+03   0.000000E+00  -0.998300E+02
   19   0.105238E+03   0.173333E+02    0  -0.542039E+02  -0.149783E+03  -0.386364E+01  -0.917942E+02
   20   0.105397E+03   0.326667E+02    0   0.410852E+01  -0.541131E+02  -0.185856E+01  -0.225020E+02
   21   0.111778E+03   0.403333E+02    0   0.161611E+01  -0.354835E+02   0.798237E+00  -0.152403E+02



============== TRACTION LOADING ===============



OUTPUT FOR LOAD FACTOR =   0.10000E+01

NODE DISPLACEMENTS
**********************

 INOD            COORDS                        DISP

    1  -0.160000E+02   0.200000E+01   0.000000E+00   0.000000E+00
    2  -0.160000E+02   0.220000E+02   0.000000E+00  -0.858451E-03
    3   0.314286E+01   0.200000E+01   0.385001E-03   0.000000E+00
    4   0.500000E+01   0.220000E+02   0.309688E-03  -0.577373E-03
    5   0.222857E+02   0.200000E+01   0.593409E-03   0.000000E+00
    6   0.260000E+02   0.220000E+02   0.512088E-03  -0.350205E-03
    7   0.414286E+02   0.200000E+01   0.669747E-03   0.000000E+00
    8   0.440000E+02   0.350000E+02   0.346469E-03   0.991945E-04
    9   0.605714E+02   0.200000E+01   0.422867E-03   0.000000E+00
   10   0.605714E+02   0.250000E+02   0.330960E-03   0.263875E-03
   11   0.620000E+02   0.480000E+02   0.349120E-03   0.497286E-03
   12   0.797143E+02   0.200000E+01   0.202965E-03   0.000000E+00
   13   0.797143E+02   0.250000E+02   0.174424E-03   0.150404E-03
   14   0.806667E+02   0.480000E+02   0.250941E-03   0.227319E-03
   15   0.988571E+02   0.200000E+01   0.734648E-04   0.000000E+00
   16   0.988571E+02   0.250000E+02   0.905950E-04   0.724495E-04
   17   0.993333E+02   0.480000E+02   0.133553E-03   0.146728E-03
   18   0.118000E+03   0.200000E+01   0.000000E+00   0.000000E+00
   19   0.118000E+03   0.250000E+02   0.000000E+00   0.463885E-04
   20   0.118000E+03   0.480000E+02   0.000000E+00   0.138395E-03

MATERIAL POINT STRESSES
**********************

  IEL           LOCATION             IPL            S11            S22            S12            S33


    1  -0.261905E+01   0.153333E+02    0  -0.575288E+02  -0.455958E+02   0.214186E+01  -0.464061E+02
    2  -0.961905E+01   0.866667E+01    0  -0.623730E+02  -0.585245E+02   0.000000E+00  -0.544039E+02
    3   0.177619E+02   0.153333E+02    0  -0.569598E+02  -0.547526E+02  -0.354041E+01  -0.502706E+02
    4   0.101429E+02   0.866667E+01    0  -0.638783E+02  -0.484635E+02  -0.860508E+00  -0.505538E+02
    5   0.371429E+02   0.196667E+02    0  -0.359838E+02  -0.754717E+02  -0.682038E+01  -0.501550E+02
    6   0.299048E+02   0.866667E+01    0  -0.613088E+02  -0.573200E+02   0.159169E+01  -0.533830E+02
    7   0.555238E+02   0.360000E+02    0  -0.161715E+02  -0.513152E+02  -0.792266E+01  -0.303690E+02
    8   0.541905E+02   0.966667E+01    0  -0.480811E+02  -0.136271E+03   0.300837E+01  -0.829583E+02
    9   0.486667E+02   0.206667E+02    0  -0.291924E+02  -0.705134E+02  -0.108211E+02  -0.448676E+02
   10   0.669524E+02   0.966667E+01    0  -0.530888E+02  -0.143445E+03   0.300837E+01  -0.884403E+02
   11   0.733333E+02   0.173333E+02    0  -0.528779E+02  -0.148647E+03   0.532869E+00  -0.906862E+02
   12   0.674286E+02   0.326667E+02    0   0.939043E+01  -0.436900E+02   0.633649E+01  -0.154348E+02
   13   0.741270E+02   0.403333E+02    0  -0.779980E+01  -0.533706E+02   0.242597E+01  -0.275267E+02
   14   0.860952E+02   0.966667E+01    0  -0.563006E+02  -0.155856E+03   0.332605E+01  -0.954704E+02
   15   0.924762E+02   0.173333E+02    0  -0.540081E+02  -0.148773E+03   0.325107E+01  -0.912514E+02
   16   0.864127E+02   0.326667E+02    0   0.599355E+01  -0.493322E+02   0.679782E+01  -0.195024E+02
   17   0.929524E+02   0.403333E+02    0  -0.193714E+00  -0.540897E+02   0.385594E+01  -0.244275E+02
   18   0.111619E+03   0.966667E+01    0  -0.557837E+02  -0.166205E+03   0.000000E+00  -0.998948E+02
   19   0.105238E+03   0.173333E+02    0  -0.543758E+02  -0.149738E+03  -0.387215E+01  -0.918511E+02
   20   0.105397E+03   0.326667E+02    0   0.393504E+01  -0.540661E+02  -0.185022E+01  -0.225590E+02
   21   0.111778E+03   0.403333E+02    0   0.131598E+01  -0.354760E+02   0.792079E+00  -0.153720E+02
