 Error in allocating EVOL.
 Error in allocating EVOL0.
 Error in allocating EVOLi.
 Error in allocating DIA.
 Error in allocating EVOLB.
 Error in allocating FBAR.

====================================================
      3-NODED FINITE ELEMENT STRESS ANALYSIS
====================================================

FILE: C:\Users\Brandon\Documents\Research\2010-2011\SlopeFEA\TestFiles\test2
DATE:  6/19/2011
TIME: 21:59:12.543



 type of analysis ...................... = PLANE STRAIN ELASTO-PLASTIC (MOHR-COULOMB FAILURE CRITERION)    
 # of material types .............. NMTL =       1
 # of nodes ....................... NNOD =      20
 # of coordinate dimensions ....... NDIM =       2
 # of dofs/node ................... NVAR =       2
 # of body elements ................ NEL =      21
 # of nodes/element ............. NNODEL =       3
 # of dofs/element ................ NVEL =       6
 # of traction elements ........... NELT =       3
 # of nodes/traction element ... NNODELT =       2
 # of dofs/traction element ...... NVELT =       4
 # of load steps ................. NSTEP =      11
 # of iterations/load step ....... NITER =       5
 # of print lines ............... NPRINT =     200
 outp node number ............. IPRINT =      10
 load factor ..................... LFACT =  0.10000E+01
 gravity factor .................. GFACT =  0.10000E+01



===================== NODE INFORMATION =====================


   NODE        COORDS (X,Y,..)        FIX (U,V,..)        PLOADS (U,V,..)


     1        -16.000       2.000         0    0          0.000       0.000

     2        -16.000      22.000         0    1          0.000       0.000

     3          3.143       2.000         2    0          0.000       0.000

     4          5.000      22.000         3    4          0.000       0.000

     5         22.286       2.000         5    0          0.000       0.000

     6         26.000      22.000         6    7          0.000       0.000

     7         41.429       2.000         8    0          0.000       0.000

     8         44.000      35.000         9   10          0.000       0.000

     9         60.571       2.000        11    0          0.000       0.000

    10         60.571      25.000        12   13          0.000       0.000

    11         62.000      48.000        14   15         20.000      50.000

    12         79.714       2.000        16    0          0.000       0.000

    13         79.714      25.000        17   18          0.000       0.000

    14         80.667      48.000        19   20          0.000       0.000

    15         98.857       2.000        21    0          0.000       0.000

    16         98.857      25.000        22   23          0.000       0.000

    17         99.333      48.000        24   25          0.000       0.000

    18        118.000       2.000         0    0          0.000       0.000

    19        118.000      25.000         0   26          0.000       0.000

    20        118.000      48.000         0   27          0.000       0.000



================= BODY ELEMENT INFORMATION =================


   ELEMENT         NODES         MTL        AREA        CENTROID (X,Y,..)


     1         4    2    3       1       0.2100E+03         -2.619    15.333

     2         2    1    3       1       0.1914E+03         -9.619     8.667

     3         6    4    5       1       0.2100E+03         17.762    15.333

     4         4    3    5       1       0.1914E+03         10.143     8.667

     5         8    6    7       1       0.2803E+03         37.143    19.667

     6         6    5    7       1       0.1914E+03         29.905     8.667

     7        10   11    8       1       0.1977E+03         55.524    36.000

     8         7    9   10       1       0.2201E+03         54.190     9.667

     9         7   10    8       1       0.2863E+03         48.667    20.667

    10        12   10    9       1       0.2201E+03         66.952     9.667

    11        12   13   10       1       0.2201E+03         73.333    17.333

    12        13   11   10       1       0.2201E+03         67.429    32.667

    13        13   14   11       1       0.2147E+03         74.127    40.333

    14        15   13   12       1       0.2201E+03         86.095     9.667

    15        15   16   13       1       0.2201E+03         92.476    17.333

    16        16   14   13       1       0.2201E+03         86.413    32.667

    17        16   17   14       1       0.2147E+03         92.952    40.333

    18        18   16   15       1       0.2201E+03        105.238     9.667

    19        18   19   16       1       0.2201E+03        111.619    17.333

    20        19   17   16       1       0.2201E+03        105.397    32.667

    21        19   20   17       1       0.2147E+03        111.778    40.333



=============== STIFFNESS MATRIX INFORMATION ===============


 # of degrees of freedom ... NNET =      27
 # of codiagonal bands .... LBAND =       6



==================== MATERIAL PROPERTIES ===================


MATERIAL SET    1
*************************
unit weight ............... GRR =  0.18000E+02
internal friction angle ... PHI =  0.50000E+01
cohesion .................. COH =  0.50000E+02
dilatancy angle ........... PSI =  0.10000E+02
elastic modulus .......... EMOD =  0.10000E+05
poisson's ratio ............ NU =  0.45000E+00



=============== TRACTION ELEMENT INFORMATION ===============


   ELEMENT      NODES               TNF                    TSF


     1        20   17      -0.2000E+01 -0.4667E+01       0.0000E+00  0.0000E+00

     2        17   14      -0.4667E+01 -0.7333E+01       0.0000E+00  0.0000E+00

     3        14   11      -0.7333E+01 -0.1000E+02       0.0000E+00  0.0000E+00




=============== GRAVITY LOADING ===============




OUTPUT FOR LOAD FACTOR =   0.10000E+01

NODE DISPLACEMENTS
**********************

 INOD            COORDS                        DISP

    1  -0.160000E+02   0.200000E+01   0.000000E+00   0.000000E+00
    2  -0.160000E+02   0.220000E+02   0.000000E+00  -0.106331E-01
    3   0.314286E+01   0.200000E+01  -0.140504E-01   0.000000E+00
    4   0.500000E+01   0.220000E+02  -0.169069E-01  -0.613625E-02
    5   0.222857E+02   0.200000E+01  -0.313754E-01   0.000000E+00
    6   0.260000E+02   0.220000E+02  -0.321786E-01  -0.137332E-01
    7   0.414286E+02   0.200000E+01  -0.475923E-01   0.000000E+00
    8   0.440000E+02   0.350000E+02  -0.263432E-01  -0.556472E-01
    9   0.605714E+02   0.200000E+01  -0.384796E-01   0.000000E+00
   10   0.605714E+02   0.250000E+02  -0.337644E-01  -0.640796E-01
   11   0.620000E+02   0.480000E+02  -0.180473E-01  -0.964207E-01
   12   0.797143E+02   0.200000E+01  -0.277254E-01   0.000000E+00
   13   0.797143E+02   0.250000E+02  -0.228077E-01  -0.681946E-01
   14   0.806667E+02   0.480000E+02  -0.137760E-01  -0.101169E+00
   15   0.988571E+02   0.200000E+01  -0.139198E-01   0.000000E+00
   16   0.988571E+02   0.250000E+02  -0.112767E-01  -0.676474E-01
   17   0.993333E+02   0.480000E+02  -0.696972E-02  -0.100325E+00
   18   0.118000E+03   0.200000E+01   0.000000E+00   0.000000E+00
   19   0.118000E+03   0.250000E+02   0.000000E+00  -0.655908E-01
   20   0.118000E+03   0.480000E+02   0.000000E+00  -0.935322E-01

MATERIAL POINT STRESSES
**********************

  IEL           LOCATION                       S11            S22            S12            S33


    1  -0.261905E+01   0.153333E+02  -0.574808E+02  -0.442836E+02   0.201469E+01  -0.457940E+02
    2  -0.961905E+01   0.866667E+01  -0.620907E+02  -0.565094E+02   0.000000E+00  -0.533700E+02
    3   0.177619E+02   0.153333E+02  -0.570121E+02  -0.540399E+02  -0.368091E+01  -0.499734E+02
    4   0.101429E+02   0.866667E+01  -0.635053E+02  -0.470026E+02  -0.810870E+00  -0.497285E+02
    5   0.371429E+02   0.196667E+02  -0.361038E+02  -0.759744E+02  -0.719145E+01  -0.504352E+02
    6   0.299048E+02   0.866667E+01  -0.608118E+02  -0.563845E+02   0.161612E+01  -0.527383E+02
    7   0.555238E+02   0.360000E+02  -0.170287E+02  -0.526341E+02  -0.859122E+01  -0.313482E+02
    8   0.541905E+02   0.966667E+01  -0.472577E+02  -0.137247E+03   0.282770E+01  -0.830270E+02
    9   0.486667E+02   0.206667E+02  -0.290173E+02  -0.708401E+02  -0.111663E+02  -0.449359E+02
   10   0.669524E+02   0.966667E+01  -0.519647E+02  -0.144319E+03   0.282770E+01  -0.883278E+02
   11   0.733333E+02   0.173333E+02  -0.531413E+02  -0.150723E+03  -0.159116E-01  -0.917391E+02
   12   0.674286E+02   0.326667E+02   0.996372E+01  -0.442474E+02   0.597017E+01  -0.154276E+02
   13   0.741270E+02   0.403333E+02  -0.855117E+01  -0.541225E+02   0.177700E+01  -0.282031E+02
   14   0.860952E+02   0.966667E+01  -0.544060E+02  -0.156093E+03   0.294915E+01  -0.947248E+02
   15   0.924762E+02   0.173333E+02  -0.542540E+02  -0.152007E+03   0.197938E+01  -0.928176E+02
   16   0.864127E+02   0.326667E+02   0.738120E+01  -0.488180E+02   0.546662E+01  -0.186465E+02
   17   0.929524E+02   0.403333E+02  -0.256846E+01  -0.518466E+02   0.310238E+01  -0.244868E+02
   18   0.105238E+03   0.966667E+01  -0.573727E+02  -0.158568E+03   0.158505E+01  -0.971735E+02
   19   0.111619E+03   0.173333E+02  -0.551055E+02  -0.150026E+03   0.148185E+01  -0.923090E+02
   20   0.105397E+03   0.326667E+02   0.529267E+01  -0.502131E+02   0.389654E+01  -0.202142E+02
   21   0.111778E+03   0.403333E+02   0.312826E+01  -0.406847E+02   0.501948E+01  -0.169004E+02



============== TRACTION LOADING ===============




OUTPUT FOR LOAD FACTOR =   0.10000E+01

NODE DISPLACEMENTS
**********************

 INOD            COORDS                        DISP

    1  -0.160000E+02   0.200000E+01   0.000000E+00   0.000000E+00
    2  -0.160000E+02   0.220000E+02   0.000000E+00  -0.830987E-03
    3   0.314286E+01   0.200000E+01   0.331297E-03   0.000000E+00
    4   0.500000E+01   0.220000E+02   0.240847E-03  -0.548875E-03
    5   0.222857E+02   0.200000E+01   0.488361E-03   0.000000E+00
    6   0.260000E+02   0.220000E+02   0.375816E-03  -0.347985E-03
    7   0.414286E+02   0.200000E+01   0.528451E-03   0.000000E+00
    8   0.440000E+02   0.350000E+02   0.180794E-03  -0.277784E-04
    9   0.605714E+02   0.200000E+01   0.343948E-03   0.000000E+00
   10   0.605714E+02   0.250000E+02   0.216730E-03   0.750869E-04
   11   0.620000E+02   0.480000E+02   0.113174E-03   0.688013E-04
   12   0.797143E+02   0.200000E+01   0.203100E-03   0.000000E+00
   13   0.797143E+02   0.250000E+02   0.144051E-03   0.625048E-04
   14   0.806667E+02   0.480000E+02   0.854702E-04   0.861379E-04
   15   0.988571E+02   0.200000E+01   0.946982E-04   0.000000E+00
   16   0.988571E+02   0.250000E+02   0.713153E-04   0.588339E-04
   17   0.993333E+02   0.480000E+02   0.448122E-04   0.901510E-04
   18   0.118000E+03   0.200000E+01   0.000000E+00   0.000000E+00
   19   0.118000E+03   0.250000E+02   0.000000E+00   0.549582E-04
   20   0.118000E+03   0.480000E+02   0.000000E+00   0.806661E-04

MATERIAL POINT STRESSES
**********************

  IEL           LOCATION                       S11            S22            S12            S33


    1  -0.261905E+01   0.153333E+02  -0.577512E+02  -0.456620E+02   0.212292E+01  -0.465359E+02
    2  -0.961905E+01   0.866667E+01  -0.624956E+02  -0.585379E+02   0.000000E+00  -0.544651E+02
    3   0.177619E+02   0.153333E+02  -0.572418E+02  -0.549758E+02  -0.364304E+01  -0.504979E+02
    4   0.101429E+02   0.866667E+01  -0.639608E+02  -0.484415E+02  -0.883758E+00  -0.505810E+02
    5   0.371429E+02   0.196667E+02  -0.362613E+02  -0.761028E+02  -0.706420E+01  -0.505639E+02
    6   0.299048E+02   0.866667E+01  -0.612363E+02  -0.573468E+02   0.153314E+01  -0.533624E+02
    7   0.555238E+02   0.360000E+02  -0.169680E+02  -0.525764E+02  -0.857253E+01  -0.312950E+02
    8   0.541905E+02   0.966667E+01  -0.476824E+02  -0.137315E+03   0.275141E+01  -0.832490E+02
    9   0.486667E+02   0.206667E+02  -0.291833E+02  -0.709307E+02  -0.112322E+02  -0.450513E+02
   10   0.669524E+02   0.966667E+01  -0.522624E+02  -0.144324E+03   0.275141E+01  -0.884638E+02
   11   0.733333E+02   0.173333E+02  -0.532408E+02  -0.150643E+03  -0.603895E-01  -0.917478E+02
   12   0.674286E+02   0.326667E+02   0.977738E+01  -0.443354E+02   0.590225E+01  -0.155511E+02
   13   0.741270E+02   0.403333E+02  -0.856877E+01  -0.540718E+02   0.175553E+01  -0.281883E+02
   14   0.860952E+02   0.966667E+01  -0.546372E+02  -0.156094E+03   0.291373E+01  -0.948288E+02
   15   0.924762E+02   0.173333E+02  -0.543865E+02  -0.151964E+03   0.196271E+01  -0.928578E+02
   16   0.864127E+02   0.326667E+02   0.721115E+01  -0.488546E+02   0.543101E+01  -0.187396E+02
   17   0.929524E+02   0.403333E+02  -0.263249E+01  -0.518131E+02   0.309007E+01  -0.245005E+02
   18   0.105238E+03   0.966667E+01  -0.575783E+02  -0.158567E+03   0.157103E+01  -0.972654E+02
   19   0.111619E+03   0.173333E+02  -0.552418E+02  -0.149993E+03   0.147906E+01  -0.923558E+02
   20   0.105397E+03   0.326667E+02   0.512675E+01  -0.502385E+02   0.387892E+01  -0.203003E+02
   21   0.111778E+03   0.403333E+02   0.303984E+01  -0.406761E+02   0.501247E+01  -0.169363E+02
